(set-logic HORN)
(declare-datatypes ((Nat_606 0)) (((Z_2130 ) (S_495 (unS_714 Nat_606)))))
(declare-fun diseqNat_606 (Nat_606 Nat_606) Bool)
(declare-fun unS_715 (Nat_606 Nat_606) Bool)
(declare-fun isZ_462 (Nat_606) Bool)
(declare-fun isS_462 (Nat_606) Bool)
(assert (forall ((x_56123 Nat_606))
	(unS_715 x_56123 (S_495 x_56123))))
(assert (isZ_462 Z_2130))
(assert (forall ((x_56125 Nat_606))
	(isS_462 (S_495 x_56125))))
(assert (forall ((x_56126 Nat_606))
	(diseqNat_606 Z_2130 (S_495 x_56126))))
(assert (forall ((x_56127 Nat_606))
	(diseqNat_606 (S_495 x_56127) Z_2130)))
(assert (forall ((x_56128 Nat_606) (x_56129 Nat_606))
	(=> (diseqNat_606 x_56128 x_56129)
	    (diseqNat_606 (S_495 x_56128) (S_495 x_56129)))))
(declare-fun add_383 (Nat_606 Nat_606 Nat_606) Bool)
(declare-fun minus_378 (Nat_606 Nat_606 Nat_606) Bool)
(declare-fun le_357 (Nat_606 Nat_606) Bool)
(declare-fun ge_357 (Nat_606 Nat_606) Bool)
(declare-fun lt_377 (Nat_606 Nat_606) Bool)
(declare-fun gt_360 (Nat_606 Nat_606) Bool)
(declare-fun mult_358 (Nat_606 Nat_606 Nat_606) Bool)
(declare-fun div_357 (Nat_606 Nat_606 Nat_606) Bool)
(declare-fun mod_359 (Nat_606 Nat_606 Nat_606) Bool)
(assert (forall ((y_2368 Nat_606))
	(add_383 y_2368 Z_2130 y_2368)))
(assert (forall ((x_56107 Nat_606) (y_2368 Nat_606) (r_430 Nat_606))
	(=> (add_383 r_430 x_56107 y_2368)
	    (add_383 (S_495 r_430) (S_495 x_56107) y_2368))))
(assert (forall ((y_2368 Nat_606))
	(minus_378 Z_2130 Z_2130 y_2368)))
(assert (forall ((x_56107 Nat_606) (y_2368 Nat_606) (r_430 Nat_606))
	(=> (minus_378 r_430 x_56107 y_2368)
	    (minus_378 (S_495 r_430) (S_495 x_56107) y_2368))))
(assert (forall ((y_2368 Nat_606))
	(le_357 Z_2130 y_2368)))
(assert (forall ((x_56107 Nat_606) (y_2368 Nat_606))
	(=> (le_357 x_56107 y_2368)
	    (le_357 (S_495 x_56107) (S_495 y_2368)))))
(assert (forall ((y_2368 Nat_606))
	(ge_357 y_2368 Z_2130)))
(assert (forall ((x_56107 Nat_606) (y_2368 Nat_606))
	(=> (ge_357 x_56107 y_2368)
	    (ge_357 (S_495 x_56107) (S_495 y_2368)))))
(assert (forall ((y_2368 Nat_606))
	(lt_377 Z_2130 (S_495 y_2368))))
(assert (forall ((x_56107 Nat_606) (y_2368 Nat_606))
	(=> (lt_377 x_56107 y_2368)
	    (lt_377 (S_495 x_56107) (S_495 y_2368)))))
(assert (forall ((y_2368 Nat_606))
	(gt_360 (S_495 y_2368) Z_2130)))
(assert (forall ((x_56107 Nat_606) (y_2368 Nat_606))
	(=> (gt_360 x_56107 y_2368)
	    (gt_360 (S_495 x_56107) (S_495 y_2368)))))
(assert (forall ((y_2368 Nat_606))
	(mult_358 Z_2130 Z_2130 y_2368)))
(assert (forall ((x_56107 Nat_606) (y_2368 Nat_606) (r_430 Nat_606) (z_2131 Nat_606))
	(=>	(and (mult_358 r_430 x_56107 y_2368)
			(add_383 z_2131 r_430 y_2368))
		(mult_358 z_2131 (S_495 x_56107) y_2368))))
(assert (forall ((x_56107 Nat_606) (y_2368 Nat_606))
	(=> (lt_377 x_56107 y_2368)
	    (div_357 Z_2130 x_56107 y_2368))))
(assert (forall ((x_56107 Nat_606) (y_2368 Nat_606) (r_430 Nat_606) (z_2131 Nat_606))
	(=>	(and (ge_357 x_56107 y_2368)
			(minus_378 z_2131 x_56107 y_2368)
			(div_357 r_430 z_2131 y_2368))
		(div_357 (S_495 r_430) x_56107 y_2368))))
(assert (forall ((x_56107 Nat_606) (y_2368 Nat_606))
	(=> (lt_377 x_56107 y_2368)
	    (mod_359 x_56107 x_56107 y_2368))))
(assert (forall ((x_56107 Nat_606) (y_2368 Nat_606) (r_430 Nat_606) (z_2131 Nat_606))
	(=>	(and (ge_357 x_56107 y_2368)
			(minus_378 z_2131 x_56107 y_2368)
			(mod_359 r_430 z_2131 y_2368))
		(mod_359 r_430 x_56107 y_2368))))
(declare-datatypes ((list_257 0)) (((nil_287 ) (cons_257 (head_514 Nat_606) (tail_514 list_257)))))
(declare-fun diseqlist_257 (list_257 list_257) Bool)
(declare-fun head_515 (Nat_606 list_257) Bool)
(declare-fun tail_515 (list_257 list_257) Bool)
(declare-fun isnil_287 (list_257) Bool)
(declare-fun iscons_257 (list_257) Bool)
(assert (forall ((x_56109 Nat_606) (x_56110 list_257))
	(head_515 x_56109 (cons_257 x_56109 x_56110))))
(assert (forall ((x_56109 Nat_606) (x_56110 list_257))
	(tail_515 x_56110 (cons_257 x_56109 x_56110))))
(assert (isnil_287 nil_287))
(assert (forall ((x_56112 Nat_606) (x_56113 list_257))
	(iscons_257 (cons_257 x_56112 x_56113))))
(assert (forall ((x_56114 Nat_606) (x_56115 list_257))
	(diseqlist_257 nil_287 (cons_257 x_56114 x_56115))))
(assert (forall ((x_56116 Nat_606) (x_56117 list_257))
	(diseqlist_257 (cons_257 x_56116 x_56117) nil_287)))
(assert (forall ((x_56118 Nat_606) (x_56119 list_257) (x_56120 Nat_606) (x_56121 list_257))
	(=> (diseqNat_606 x_56118 x_56120)
	    (diseqlist_257 (cons_257 x_56118 x_56119) (cons_257 x_56120 x_56121)))))
(assert (forall ((x_56118 Nat_606) (x_56119 list_257) (x_56120 Nat_606) (x_56121 list_257))
	(=> (diseqlist_257 x_56119 x_56121)
	    (diseqlist_257 (cons_257 x_56118 x_56119) (cons_257 x_56120 x_56121)))))
(declare-fun x_56094 (list_257 list_257 list_257) Bool)
(assert (forall ((x_56099 list_257) (z_2129 Nat_606) (xs_685 list_257) (y_2366 list_257))
	(=> (x_56094 x_56099 xs_685 y_2366)
	    (x_56094 (cons_257 z_2129 x_56099) (cons_257 z_2129 xs_685) y_2366))))
(assert (forall ((x_56100 list_257))
	(x_56094 x_56100 nil_287 x_56100)))
(declare-fun rev_17 (list_257 list_257) Bool)
(assert (forall ((x_56101 list_257) (x_56102 list_257) (y_2367 Nat_606) (xs_686 list_257))
	(=>	(and (rev_17 x_56102 xs_686)
			(x_56094 x_56101 x_56102 (cons_257 y_2367 nil_287)))
		(rev_17 x_56101 (cons_257 y_2367 xs_686)))))
(assert (rev_17 nil_287 nil_287))
(assert (forall ((x_56105 list_257) (x_56106 list_257) (x_56097 list_257))
	(=>	(and true
			(diseqlist_257 x_56106 x_56097)
			(rev_17 x_56105 x_56097)
			(rev_17 x_56106 x_56105))
		false)))
(check-sat)
